TERM = { '.', s0, s1, s2, s3, s4};
null = '.';
s = 4;
n = 5;
min = 3;
ZEROARYOP = {};
zeroout = [];
zerogas = [];
zerosz =  [];
zerolb =  [];
zeroub =  [];
UNARYOP = {};
unin =  [];
unout = [];
ungas = [];
unsz =  [];
unlb =  [];
unub =  [];
BINARYOP = { SUB_0, ADD_0 };
binin1 = [s2, s1 ];
binin2 = [s4, s0 ];
binout = [s3, s4 ];
bincomm = [false, true ];
bingas = [3, 3 ];
binsz = [1, 1 ];
binlb = [ 1, 1 ];
binub = [ 4, 4 ];
PUSHOP = {};
pushout = [];
pushgas = [];
pushsz =  [];
pushlb =  [];
pushub =  [];
STOROP = {};
storin1 =  [];
storin2 =  [];
storlb =  [];
storub =  [];
startstack = [ s0, s1, s2, '.', '.' ];
endstack = [ s3, '.', '.', '.', '.' ];
before = [  ];
after = [  ];
